db/inputs/10931273472626116521301412186183875827.smt2
(set-logic QF_FP)
(declare-const x0 (_ FloatingPoint 11 53))
(declare-const x1 (_ FloatingPoint 11 53))
(declare-const x2 (_ FloatingPoint 11 53))
(declare-const x3 (_ FloatingPoint 11 53))
(declare-const x4 (_ FloatingPoint 11 53))
(declare-const x5 (_ FloatingPoint 11 53))
(declare-const x6 (_ FloatingPoint 11 53))
(declare-const x7 (_ FloatingPoint 11 53))
(declare-const x8 (_ FloatingPoint 11 53))
(declare-const x9 (_ FloatingPoint 11 53))
(declare-const x10 (_ FloatingPoint 11 53))
(declare-const x11 (_ FloatingPoint 11 53))
(declare-const x12 (_ FloatingPoint 11 53))
(assert (fp.geq (fp.mul RNE (fp.mul RNE x0 x4) (fp.mul RNE x7 x5)) (fp.add RNE (fp.div RNE x10 x9) (fp.div RNE x2 x9))))
(assert (fp.geq (fp.neg (fp.div RNE x10 x7)) (fp.sub RNE (fp.neg x0) (fp.mul RNE x4 x2))))
(assert (fp.lt (fp.neg (fp.neg x1)) (fp.div RNE (fp.mul RNE x2 x8) (fp.div RNE x4 x7))))
(assert (fp.geq (fp.neg (fp.neg x3)) (fp.add RNE (fp.sub RNE x12 x1) (fp.sub RNE x7 x9))))
(assert (fp.lt (fp.neg (fp.add RNE x8 x0)) (fp.neg (fp.neg x9))))
(assert (fp.geq (fp.mul RNE (fp.add RNE x12 x4) (fp.div RNE x1 x0)) (fp.mul RNE (fp.div RNE x9 x11) (fp.div RNE x3 x4))))
(assert (fp.geq (fp.div RNE (fp.neg x2) (fp.div RNE x8 x12)) (fp.add RNE (fp.add RNE x5 x3) (fp.mul RNE x7 x11))))
(assert (fp.gt (fp.add RNE (fp.mul RNE x5 x2) (fp.mul RNE x4 x0)) (fp.sub RNE (fp.neg x9) (fp.mul RNE x4 x4))))
(assert (fp.lt (fp.sub RNE (fp.sub RNE x10 x3) (fp.mul RNE x6 x8)) (fp.div RNE (fp.div RNE x12 x5) (fp.sub RNE x8 x6))))
(assert (fp.gt (fp.add RNE (fp.sub RNE x10 x10) (fp.neg x10)) (fp.add RNE (fp.div RNE x11 x11) (fp.mul RNE x4 x5))))
(check-sat)
