db/data/10931273472626116521301412186183875827.z3.out
-------------------
2500.126985306
